networks/zoo_88_1892/zoo_88_1892.txt
OKAY
Number of groups: 45
Flow 14: {40 15 0} {15 59 1} 
Flow 56: {2 41 0} {41 14 1} {14 58 2} 
Flow 87: {41 1 0} {1 45 1} 
Flow 108: {44 8 0} {8 6 1} {6 23 2} {23 67 3} 
Flow 129: {3 44 0} {44 88 1} 
Flow 187: {8 7 0} {7 1 1} {1 16 2} {16 60 3} 
Flow 196: {5 8 0} {8 25 1} {25 69 2} 
Flow 277: {7 8 0} {8 20 1} {20 64 2} 
Flow 361: {9 8 0} {8 18 1} {18 62 2} 
Flow 436: {11 10 0} {10 7 1} {7 6 2} {6 50 3} 
Flow 450: {1 42 0} 
Flow 482: {12 8 0} {8 9 1} {9 53 2} 
Flow 558: {13 41 0} {41 43 1} {43 87 2} 
Flow 593: {14 41 0} {41 35 1} {35 79 2} 
Flow 634: {15 40 0} {40 41 1} {41 33 2} {33 77 3} 
Flow 672: {16 1 1} {1 41 2} {41 28 3} {28 72 4} 
Flow 693: {29 10 0} {10 8 1} {8 5 2} {5 49 3} 
Flow 716: {17 29 0} {29 73 1} 
Flow 767: {18 8 0} {8 44 1} {44 38 2} {38 37 3} {37 81 4} 
Flow 781: {19 4 0} {4 1 1} {1 7 2} {7 51 3} 
Flow 856: {20 8 0} {8 41 1} {41 40 2} {40 84 3} 
Flow 879: {21 42 0} {42 1 1} {1 4 2} {4 19 3} {19 63 4} 
Flow 934: {22 4 0} {4 41 1} {41 32 2} {32 76 3} 
Flow 956: {6 7 0} {7 10 1} {10 54 2} 
Flow 963: {10 29 0} {29 17 1} {17 61 2} 
Flow 969: {23 6 0} {6 8 1} {8 24 2} {24 68 3} 
Flow 1001: {24 8 0} {8 12 1} {12 56 2} 
Flow 1061: {25 8 0} {8 10 1} {10 30 2} {30 74 3} 
Flow 1083: {26 41 0} {41 8 1} {8 52 2} 
Flow 1144: {27 44 0} {44 41 1} {41 26 2} {26 70 3} 
Flow 1164: {28 41 0} {41 44 1} {44 3 2} {3 47 3} 
Flow 1258: {30 10 0} {10 11 1} {11 55 2} 
Flow 1294: {31 4 0} {4 48 1} 
Flow 1368: {32 41 0} {41 36 1} {36 80 2} 
Flow 1378: {33 41 0} {41 2 1} {2 46 2} 
Flow 1456: {34 41 0} {41 38 1} {38 82 2} 
Flow 1484: {35 41 0} {41 4 1} {4 22 2} {22 66 3} 
Flow 1545: {36 41 0} {41 85 1} 
Flow 1561: {37 38 0} {38 41 1} {41 13 2} {13 57 3} 
Flow 1618: {38 44 0} {44 27 1} {27 71 2} 
Flow 1655: {39 40 0} {40 42 1} {42 21 2} {21 65 3} 
Flow 1665: {4 31 0} {31 75 1} 
Flow 1797: {42 41 0} {41 34 1} {34 78 2} 
Flow 1802: {42 40 0} {40 39 1} {39 83 2} 
Flow 1848: {43 41 0} {41 42 1} {42 86 2} 
Time taken running everything: 1 seconds
