networks/zoo_88_1892/standard/zoo_88_1892.sol
<?xml version = "1.0" encoding="UTF-8" standalone="yes"?>
<CPLEXSolution version="1.2">
 <header
   problemName="networks/zoo_88_1892/zoo_88_1892.lp"
   solutionName="incumbent"
   solutionIndex="-1"
   objectiveValue="45"
   solutionTypeValue="3"
   solutionTypeString="primal"
   solutionStatusValue="101"
   solutionStatusString="integer optimal solution"
   solutionMethodString="mip"
   primalFeasible="1"
   dualFeasible="1"
   MIPNodes="6599"
   MIPIterations="105844"
   writeLevel="3"/>
 <quality
   epInt="1.0000000000000001e-05"
   epRHS="9.9999999999999995e-07"
   maxIntInfeas="0"
   maxPrimalInfeas="0"
   maxX="4"
   maxSlack="10"/>
 <variables>
  <variable name="Y(14,15)" index="1158" value="1"/>
  <variable name="Y(56,14)" index="4853" value="1"/>
  <variable name="Y(87,1)" index="7568" value="1"/>
  <variable name="Y(108,23)" index="9438" value="1"/>
  <variable name="Y(129,44)" index="11307" value="1"/>
  <variable name="Y(187,16)" index="16383" value="1"/>
  <variable name="Y(196,25)" index="17184" value="1"/>
  <variable name="Y(277,20)" index="24307" value="1"/>
  <variable name="Y(361,18)" index="31697" value="1"/>
  <variable name="Y(436,6)" index="38285" value="1"/>
  <variable name="Y(450,1)" index="39512" value="1"/>
  <variable name="Y(482,9)" index="42336" value="1"/>
  <variable name="Y(558,43)" index="49058" value="1"/>
  <variable name="Y(593,35)" index="52130" value="1"/>
  <variable name="Y(634,33)" index="55736" value="1"/>
  <variable name="Y(672,28)" index="59075" value="1"/>
  <variable name="Y(693,5)" index="60900" value="1"/>
  <variable name="Y(716,29)" index="62948" value="1"/>
  <variable name="Y(767,37)" index="67444" value="1"/>
  <variable name="Y(781,7)" index="68646" value="1"/>
  <variable name="Y(856,40)" index="75279" value="1"/>
  <variable name="Y(879,19)" index="77282" value="1"/>
  <variable name="Y(934,32)" index="82135" value="1"/>
  <variable name="Y(956,10)" index="84049" value="1"/>
  <variable name="Y(963,17)" index="84672" value="1"/>
  <variable name="Y(969,24)" index="85207" value="1"/>
  <variable name="Y(1001,12)" index="88011" value="1"/>
  <variable name="Y(1061,30)" index="93309" value="1"/>
  <variable name="Y(1083,8)" index="95223" value="1"/>
  <variable name="Y(1144,26)" index="100609" value="1"/>
  <variable name="Y(1164,3)" index="102346" value="1"/>
  <variable name="Y(1258,11)" index="110626" value="1"/>
  <variable name="Y(1294,4)" index="113787" value="1"/>
  <variable name="Y(1368,36)" index="120331" value="1"/>
  <variable name="Y(1378,2)" index="121177" value="1"/>
  <variable name="Y(1456,38)" index="128077" value="1"/>
  <variable name="Y(1484,22)" index="130525" value="1"/>
  <variable name="Y(1545,41)" index="135912" value="1"/>
  <variable name="Y(1561,13)" index="137292" value="1"/>
  <variable name="Y(1618,27)" index="142322" value="1"/>
  <variable name="Y(1655,21)" index="145572" value="1"/>
  <variable name="Y(1665,31)" index="146462" value="1"/>
  <variable name="Y(1797,34)" index="158081" value="1"/>
  <variable name="Y(1802,39)" index="158526" value="1"/>
  <variable name="Y(1848,42)" index="162577" value="1"/>
  <variable name="X(1,4,879)" index="167374" value="1"/>
  <variable name="X(1,7,781)" index="169168" value="1"/>
  <variable name="X(1,16,187)" index="170466" value="1"/>
  <variable name="X(1,41,672)" index="172843" value="1"/>
  <variable name="X(1,42,450)" index="174513" value="1"/>
  <variable name="X(1,45,87)" index="176042" value="1"/>
  <variable name="X(2,41,56)" index="177903" value="1"/>
  <variable name="X(2,46,1378)" index="181117" value="1"/>
  <variable name="X(3,44,129)" index="181760" value="1"/>
  <variable name="X(3,47,1164)" index="184687" value="1"/>
  <variable name="X(4,1,781)" index="186196" value="1"/>
  <variable name="X(4,19,879)" index="188186" value="1"/>
  <variable name="X(4,22,1484)" index="190683" value="1"/>
  <variable name="X(4,31,1665)" index="192756" value="1"/>
  <variable name="X(4,41,934)" index="193917" value="1"/>
  <variable name="X(4,48,1294)" index="196169" value="1"/>
  <variable name="X(5,8,196)" index="196963" value="1"/>
  <variable name="X(5,49,693)" index="199352" value="1"/>
  <variable name="X(6,7,956)" index="201507" value="1"/>
  <variable name="X(6,8,969)" index="203412" value="1"/>
  <variable name="X(6,23,108)" index="204443" value="1"/>
  <variable name="X(6,50,436)" index="206663" value="1"/>
  <variable name="X(7,1,187)" index="208306" value="1"/>
  <variable name="X(7,6,436)" index="210447" value="1"/>
  <variable name="X(7,8,277)" index="212180" value="1"/>
  <variable name="X(7,10,956)" index="214751" value="1"/>
  <variable name="X(7,51,781)" index="216468" value="1"/>
  <variable name="X(8,5,693)" index="218272" value="1"/>
  <variable name="X(8,6,108)" index="219579" value="1"/>
  <variable name="X(8,7,187)" index="221550" value="1"/>
  <variable name="X(8,9,482)" index="223737" value="1"/>
  <variable name="X(8,10,1061)" index="226208" value="1"/>
  <variable name="X(8,12,1001)" index="228040" value="1"/>
  <variable name="X(8,18,361)" index="229292" value="1"/>
  <variable name="X(8,20,277)" index="231100" value="1"/>
  <variable name="X(8,24,969)" index="233684" value="1"/>
  <variable name="X(8,25,196)" index="234803" value="1"/>
  <variable name="X(8,41,856)" index="237355" value="1"/>
  <variable name="X(8,44,767)" index="239158" value="1"/>
  <variable name="X(8,52,1083)" index="241366" value="1"/>
  <variable name="X(9,8,361)" index="242536" value="1"/>
  <variable name="X(9,53,482)" index="244549" value="1"/>
  <variable name="X(10,7,436)" index="246395" value="1"/>
  <variable name="X(10,8,693)" index="248544" value="1"/>
  <variable name="X(10,11,1258)" index="251001" value="1"/>
  <variable name="X(10,29,963)" index="252598" value="1"/>
  <variable name="X(10,30,1061)" index="254588" value="1"/>
  <variable name="X(10,54,956)" index="256375" value="1"/>
  <variable name="X(11,10,436)" index="257747" value="1"/>
  <variable name="X(11,55,1258)" index="260461" value="1"/>
  <variable name="X(12,8,482)" index="261577" value="1"/>
  <variable name="X(12,56,1001)" index="263988" value="1"/>
  <variable name="X(13,41,558)" index="265437" value="1"/>
  <variable name="X(13,57,1561)" index="268332" value="1"/>
  <variable name="X(14,41,593)" index="269256" value="1"/>
  <variable name="X(14,58,56)" index="270611" value="1"/>
  <variable name="X(15,40,634)" index="273081" value="1"/>
  <variable name="X(15,59,14)" index="274353" value="1"/>
  <variable name="X(16,1,672)" index="276903" value="1"/>
  <variable name="X(16,60,187)" index="278310" value="1"/>
  <variable name="X(17,29,716)" index="280731" value="1"/>
  <variable name="X(17,61,963)" index="282870" value="1"/>
  <variable name="X(18,8,767)" index="284566" value="1"/>
  <variable name="X(18,62,361)" index="286052" value="1"/>
  <variable name="X(19,4,781)" index="288364" value="1"/>
  <variable name="X(19,63,879)" index="290354" value="1"/>
  <variable name="X(20,8,856)" index="292223" value="1"/>
  <variable name="X(20,64,277)" index="293536" value="1"/>
  <variable name="X(21,42,879)" index="296030" value="1"/>
  <variable name="X(21,65,1655)" index="298698" value="1"/>
  <variable name="X(22,4,934)" index="299869" value="1"/>
  <variable name="X(22,66,1484)" index="302311" value="1"/>
  <variable name="X(23,6,969)" index="303688" value="1"/>
  <variable name="X(23,67,108)" index="304719" value="1"/>
  <variable name="X(24,8,1001)" index="307504" value="1"/>
  <variable name="X(24,68,969)" index="309364" value="1"/>
  <variable name="X(25,8,1061)" index="311348" value="1"/>
  <variable name="X(25,69,196)" index="312375" value="1"/>
  <variable name="X(26,41,1083)" index="315154" value="1"/>
  <variable name="X(26,70,1144)" index="317107" value="1"/>
  <variable name="X(27,44,1144)" index="318999" value="1"/>
  <variable name="X(27,71,1618)" index="321365" value="1"/>
  <variable name="X(28,41,1164)" index="322803" value="1"/>
  <variable name="X(28,72,672)" index="324203" value="1"/>
  <variable name="X(29,10,693)" index="326116" value="1"/>
  <variable name="X(29,17,963)" index="328278" value="1"/>
  <variable name="X(29,73,716)" index="329923" value="1"/>
  <variable name="X(30,10,1258)" index="332357" value="1"/>
  <variable name="X(30,74,1061)" index="334052" value="1"/>
  <variable name="X(31,4,1294)" index="336177" value="1"/>
  <variable name="X(31,75,1665)" index="338440" value="1"/>
  <variable name="X(32,41,1368)" index="340035" value="1"/>
  <variable name="X(32,76,934)" index="341493" value="1"/>
  <variable name="X(33,41,1378)" index="343829" value="1"/>
  <variable name="X(33,77,634)" index="344977" value="1"/>
  <variable name="X(34,41,1456)" index="347691" value="1"/>
  <variable name="X(34,78,1797)" index="349924" value="1"/>
  <variable name="X(35,41,1484)" index="351503" value="1"/>
  <variable name="X(35,79,593)" index="352504" value="1"/>
  <variable name="X(36,41,1545)" index="355348" value="1"/>
  <variable name="X(36,80,1368)" index="357063" value="1"/>
  <variable name="X(37,38,1561)" index="359148" value="1"/>
  <variable name="X(37,81,767)" index="360246" value="1"/>
  <variable name="X(38,37,767)" index="362138" value="1"/>
  <variable name="X(38,41,1561)" index="364824" value="1"/>
  <variable name="X(38,44,1618)" index="366773" value="1"/>
  <variable name="X(38,82,1456)" index="368503" value="1"/>
  <variable name="X(39,40,1655)" index="370594" value="1"/>
  <variable name="X(39,83,1802)" index="372633" value="1"/>
  <variable name="X(40,15,14)" index="372737" value="1"/>
  <variable name="X(40,39,1802)" index="376417" value="1"/>
  <variable name="X(40,41,634)" index="377141" value="1"/>
  <variable name="X(40,42,1655)" index="380054" value="1"/>
  <variable name="X(40,84,856)" index="381147" value="1"/>
  <variable name="X(41,1,87)" index="382270" value="1"/>
  <variable name="X(41,2,1378)" index="385453" value="1"/>
  <variable name="X(41,4,1484)" index="387451" value="1"/>
  <variable name="X(41,8,1083)" index="388942" value="1"/>
  <variable name="X(41,13,1561)" index="391312" value="1"/>
  <variable name="X(41,14,56)" index="391699" value="1"/>
  <variable name="X(41,26,1144)" index="394679" value="1"/>
  <variable name="X(41,28,672)" index="396099" value="1"/>
  <variable name="X(41,32,934)" index="398253" value="1"/>
  <variable name="X(41,33,634)" index="399845" value="1"/>
  <variable name="X(41,34,1797)" index="402900" value="1"/>
  <variable name="X(41,35,593)" index="403588" value="1"/>
  <variable name="X(41,36,1368)" index="406255" value="1"/>
  <variable name="X(41,38,1456)" index="408235" value="1"/>
  <variable name="X(41,40,856)" index="409527" value="1"/>
  <variable name="X(41,42,1848)" index="412411" value="1"/>
  <variable name="X(41,43,558)" index="413013" value="1"/>
  <variable name="X(41,44,1164)" index="415511" value="1"/>
  <variable name="X(41,85,1545)" index="417784" value="1"/>
  <variable name="X(42,1,879)" index="419010" value="1"/>
  <variable name="X(42,21,1655)" index="421678" value="1"/>
  <variable name="X(42,40,1802)" index="423717" value="1"/>
  <variable name="X(42,41,1797)" index="425604" value="1"/>
  <variable name="X(42,86,1848)" index="427547" value="1"/>
  <variable name="X(43,41,1848)" index="429439" value="1"/>
  <variable name="X(43,87,558)" index="430041" value="1"/>
  <variable name="X(44,3,1164)" index="432539" value="1"/>
  <variable name="X(44,8,108)" index="433375" value="1"/>
  <variable name="X(44,27,1618)" index="436777" value="1"/>
  <variable name="X(44,38,767)" index="437818" value="1"/>
  <variable name="X(44,41,1144)" index="440087" value="1"/>
  <variable name="X(44,88,129)" index="440964" value="1"/>
  <variable name="C(14,15)" index="442773" value="1"/>
  <variable name="C(56,41)" index="442916" value="1"/>
  <variable name="C(56,14)" index="442917" value="2"/>
  <variable name="C(87,1)" index="443032" value="1"/>
  <variable name="C(108,8)" index="443122" value="1"/>
  <variable name="C(108,6)" index="443123" value="2"/>
  <variable name="C(108,23)" index="443124" value="3"/>
  <variable name="C(129,44)" index="443207" value="1"/>
  <variable name="C(187,7)" index="443410" value="1"/>
  <variable name="C(187,1)" index="443411" value="2"/>
  <variable name="C(187,16)" index="443412" value="3"/>
  <variable name="C(196,8)" index="443447" value="1"/>
  <variable name="C(196,25)" index="443448" value="2"/>
  <variable name="C(277,8)" index="443748" value="1"/>
  <variable name="C(277,20)" index="443749" value="2"/>
  <variable name="C(361,8)" index="444027" value="1"/>
  <variable name="C(361,18)" index="444028" value="2"/>
  <variable name="C(436,10)" index="444315" value="1"/>
  <variable name="C(436,7)" index="444316" value="2"/>
  <variable name="C(436,6)" index="444317" value="3"/>
  <variable name="C(482,8)" index="444518" value="1"/>
  <variable name="C(482,9)" index="444519" value="2"/>
  <variable name="C(558,41)" index="444812" value="1"/>
  <variable name="C(558,43)" index="444813" value="2"/>
  <variable name="C(593,41)" index="444946" value="1"/>
  <variable name="C(593,35)" index="444947" value="2"/>
  <variable name="C(634,40)" index="445128" value="1"/>
  <variable name="C(634,41)" index="445129" value="2.0000000000000004"/>
  <variable name="C(634,33)" index="445130" value="3.0000000000000004"/>
  <variable name="C(672,16)" index="445285" value="0.99999999999999956"/>
  <variable name="C(672,1)" index="445286" value="1.9999999999999996"/>
  <variable name="C(672,41)" index="445287" value="2.9999999999999996"/>
  <variable name="C(672,28)" index="445288" value="4"/>
  <variable name="C(693,10)" index="445380" value="1"/>
  <variable name="C(693,8)" index="445381" value="2"/>
  <variable name="C(693,5)" index="445382" value="3"/>
  <variable name="C(716,29)" index="445504" value="1"/>
  <variable name="C(767,8)" index="445731" value="1"/>
  <variable name="C(767,44)" index="445732" value="2"/>
  <variable name="C(767,38)" index="445733" value="3"/>
  <variable name="C(767,37)" index="445734" value="4"/>
  <variable name="C(781,4)" index="445787" value="1"/>
  <variable name="C(781,1)" index="445788" value="2"/>
  <variable name="C(781,7)" index="445789" value="3"/>
  <variable name="C(856,8)" index="446105" value="1"/>
  <variable name="C(856,41)" index="446106" value="2"/>
  <variable name="C(856,40)" index="446107" value="3"/>
  <variable name="C(879,42)" index="446206" value="1"/>
  <variable name="C(879,1)" index="446207" value="2"/>
  <variable name="C(879,4)" index="446208" value="3"/>
  <variable name="C(879,19)" index="446209" value="4"/>
  <variable name="C(934,4)" index="446455" value="1"/>
  <variable name="C(934,41)" index="446456" value="2"/>
  <variable name="C(934,32)" index="446457" value="3"/>
  <variable name="C(956,7)" index="446544" value="1"/>
  <variable name="C(956,10)" index="446545" value="2"/>
  <variable name="C(963,29)" index="446580" value="1"/>
  <variable name="C(963,17)" index="446581" value="2"/>
  <variable name="C(969,6)" index="446609" value="1"/>
  <variable name="C(969,8)" index="446610" value="2"/>
  <variable name="C(969,24)" index="446611" value="3"/>
  <variable name="C(1001,8)" index="446750" value="1"/>
  <variable name="C(1001,12)" index="446751" value="2"/>
  <variable name="C(1061,8)" index="446988" value="1"/>
  <variable name="C(1061,10)" index="446989" value="2"/>
  <variable name="C(1061,30)" index="446990" value="3"/>
  <variable name="C(1083,41)" index="447074" value="1"/>
  <variable name="C(1083,8)" index="447075" value="2"/>
  <variable name="C(1144,44)" index="447315" value="1"/>
  <variable name="C(1144,41)" index="447316" value="2"/>
  <variable name="C(1144,26)" index="447317" value="3"/>
  <variable name="C(1164,41)" index="447393" value="1"/>
  <variable name="C(1164,44)" index="447394" value="2"/>
  <variable name="C(1164,3)" index="447395" value="3"/>
  <variable name="C(1258,10)" index="447782" value="1"/>
  <variable name="C(1258,11)" index="447783" value="2"/>
  <variable name="C(1294,4)" index="447954" value="1"/>
  <variable name="C(1368,41)" index="448265" value="1"/>
  <variable name="C(1368,36)" index="448266" value="2"/>
  <variable name="C(1378,41)" index="448296" value="1"/>
  <variable name="C(1378,2)" index="448297" value="2"/>
  <variable name="C(1456,41)" index="448590" value="1"/>
  <variable name="C(1456,38)" index="448591" value="2"/>
  <variable name="C(1484,41)" index="448692" value="1"/>
  <variable name="C(1484,4)" index="448693" value="2"/>
  <variable name="C(1484,22)" index="448694" value="3"/>
  <variable name="C(1545,41)" index="448918" value="1"/>
  <variable name="C(1561,38)" index="448985" value="1"/>
  <variable name="C(1561,41)" index="448986" value="2"/>
  <variable name="C(1561,13)" index="448987" value="3"/>
  <variable name="C(1618,44)" index="449225" value="1"/>
  <variable name="C(1618,27)" index="449226" value="2"/>
  <variable name="C(1655,40)" index="449374" value="1"/>
  <variable name="C(1655,42)" index="449375" value="2"/>
  <variable name="C(1655,21)" index="449376" value="3"/>
  <variable name="C(1665,31)" index="449427" value="1"/>
  <variable name="C(1797,41)" index="449866" value="1"/>
  <variable name="C(1797,34)" index="449867" value="2"/>
  <variable name="C(1802,40)" index="449882" value="1"/>
  <variable name="C(1802,39)" index="449883" value="2"/>
  <variable name="C(1848,41)" index="450048" value="1"/>
  <variable name="C(1848,42)" index="450049" value="2"/>
 </variables>
</CPLEXSolution>
